p edge 26 37
e 1 3
e 1 9
e 1 12
e 2 5
e 2 6
e 2 8
e 2 19
e 2 20
e 3 16
e 3 19
e 3 23
e 4 6
e 4 9
e 4 11
e 4 12
e 4 13
e 4 24
e 4 25
e 5 6
e 5 8
e 6 8
e 7 10
e 7 26
e 9 14
e 10 21
e 10 26
e 11 15
e 11 22
e 12 24
e 15 21
e 15 22
e 17 18
e 17 22
e 17 25
e 19 23
e 21 26
e 22 25
